NAME : mini-n17-k4
COMMENT : Instância média CVRP para teste rápido >>CRIADA PELOS ALUNOS<<
TYPE : CVRP
DIMENSION : 17
EDGE_WEIGHT_TYPE : EUC_2D
CAPACITY : 55
NODE_COORD_SECTION
 1 40 50
 2 45 68
 3 32 70
 4 27 55
 5 50 40
 6 62 35
 7 66 58
 8 35 25
 9 25 35
 10 48 28
 11 60 60
 12 20 40
 13 15 30
 14 10 50
 15 58 15
 16 64 20
 17 42 60
DEMAND_SECTION
 1 0
 2 12
 3 15
 4 8
 5 7
 6 10
 7 9
 8 16
 9 18
 10 6
 11 14
 12 12
 13 11
 14 7
 15 5
 16 10
 17 13
DEPOT_SECTION
 1
 -1
EOF
